%NProcShared=4
%Mem=1GB
%Chk=Be.chk

# MP2/CEP-31G Pop=Full

Beryllium

0 1
 Be     0.00000000      0.00000000      0.00000000


